54085
11, 31, 25, 52, 15, 16, 2, 14, 9, 12, 18, 4, 30, 47, 54, 34, 53, 26, 55, 28, 6, 3, 43, 13, 51, 40, 7, 37, 5, 35, 24, 20, 50, 38, 8, 44, 32, 41, 19, 49, 48, 17, 23, 21, 29, 22, 10, 39, 46, 36, 1, 27, 33, 42, 45
